5
844 831 712  816
473 505 845  409
581 413 917  811
819 572 697  240
746 687 566  656
10
618 17 773  277 296
99 492 205  240 114
527 728 729  259 52
180 110 427  268 178
782 175 289  181 261
39 686 741  84 80
711 232 749  25 299
431 96 323  41 152
138 119 738  30 97
94 751 627  257 172
